\ Model opt_adjust
\ LP format - for model browsing. Use MPS format to capture full model detail.
Minimize
  x[0,0] + x[0,1] + x[1,0] + x[1,1] + x[2,0] + x[2,1] + x[3,0] + x[3,1]
Subject To
 qc0: [ x[0,0] * y[0] + x[1,0] * y[1] + x[2,0] * y[2] + x[3,0] * y[3] ]
   = 9
 qc1: [ x[0,1] * y[0] + x[1,1] * y[1] + x[2,1] * y[2] + x[3,1] * y[3] ]
   = 9
 qc2: - 27 y[0] + [ 1.725 x[0,0] * y[0] + 1.33125 x[0,1] * y[0] ] = 0
 qc3: - 24 y[1] + [ 1.725 x[1,0] * y[1] + 1.33125 x[1,1] * y[1] ] = 0
 qc4: - 16 y[2] + [ 1.725 x[2,0] * y[2] + 1.33125 x[2,1] * y[2] ] = 0
 qc5: - 21 y[3] + [ 1.725 x[3,0] * y[3] + 1.33125 x[3,1] * y[3] ] = 0
Bounds
 x[0,0] >= -11
 x[0,1] >= 3
 x[1,0] >= 17
 x[1,1] >= -4
 x[2,0] >= -11
 x[2,1] >= -5
 x[3,0] >= 6
 x[3,1] >= 8
End
